tsptw/tsptw.fzn
predicate gecode_int_element(var int: idx,int: idxoffset,array [int] of var int: x,var int: c);
predicate gecode_circuit(int: offset,array [int] of var int: x);
array [1..22] of int: X_INTRODUCED_39_ = [0,31,16,5,19,32,29,16,32,29,15,6,6,21,14,23,25,30,27,17,9,0];
array [1..22] of int: X_INTRODUCED_41_ = [31,0,21,33,42,4,18,23,8,33,21,35,36,25,29,37,50,53,45,14,38,0];
array [1..22] of int: X_INTRODUCED_43_ = [16,21,0,14,34,24,29,2,19,16,18,22,18,27,25,17,29,31,24,12,19,0];
array [1..22] of int: X_INTRODUCED_45_ = [5,33,14,0,24,34,33,14,32,25,19,10,4,26,19,18,20,25,22,19,6,0];
array [1..22] of int: X_INTRODUCED_47_ = [19,42,34,24,0,41,30,35,46,48,21,14,22,19,12,41,39,45,45,29,25,0];
array [1..22] of int: X_INTRODUCED_49_ = [32,4,24,34,41,0,15,26,12,36,20,35,37,23,28,40,52,55,48,15,40,0];
array [1..22] of int: X_INTRODUCED_51_ = [29,18,29,33,30,15,0,31,25,44,14,30,35,11,19,45,53,57,52,16,38,0];
array [1..22] of int: X_INTRODUCED_53_ = [16,23,2,14,35,26,31,0,20,14,20,22,18,29,26,14,27,29,22,15,18,0];
array [1..22] of int: X_INTRODUCED_55_ = [32,8,19,32,46,12,25,20,0,26,25,37,36,31,34,33,47,49,41,17,37,0];
array [1..22] of int: X_INTRODUCED_57_ = [29,33,16,25,48,36,44,14,26,0,34,34,28,43,40,11,27,26,17,28,26,0];
array [1..22] of int: X_INTRODUCED_59_ = [15,21,18,19,21,20,14,20,25,34,0,16,21,9,9,33,39,43,39,8,24,0];
array [1..22] of int: X_INTRODUCED_61_ = [6,35,22,10,14,35,30,22,37,34,16,0,8,21,12,28,27,33,31,21,12,0];
array [1..22] of int: X_INTRODUCED_63_ = [6,36,18,4,22,37,35,18,36,28,21,8,0,27,19,20,19,25,23,22,4,0];
array [1..22] of int: X_INTRODUCED_65_ = [21,25,27,26,19,23,11,29,31,43,9,21,27,0,9,41,46,51,47,17,31,0];
array [1..22] of int: X_INTRODUCED_67_ = [14,29,25,19,12,28,19,26,34,40,9,12,19,9,0,36,39,44,41,17,23,0];
array [1..22] of int: X_INTRODUCED_69_ = [23,37,17,18,41,40,45,14,33,11,33,28,20,41,36,0,16,16,8,29,17,0];
array [1..22] of int: X_INTRODUCED_71_ = [25,50,29,20,39,52,53,27,47,27,39,27,19,46,39,16,0,6,11,38,15,0];
array [1..22] of int: X_INTRODUCED_73_ = [30,53,31,25,45,55,57,29,49,26,43,33,25,51,44,16,6,0,9,42,21,0];
array [1..22] of int: X_INTRODUCED_75_ = [27,45,24,22,45,48,52,22,41,17,39,31,23,47,41,8,11,9,0,36,19,0];
array [1..22] of int: X_INTRODUCED_77_ = [17,14,12,19,29,15,16,15,17,28,8,21,22,17,17,29,38,42,36,0,25,0];
array [1..22] of int: X_INTRODUCED_79_ = [9,38,19,6,25,40,38,18,37,26,24,12,4,31,23,17,15,21,19,25,0,0];
array [1..3] of int: X_INTRODUCED_150_ = [1,-1,-1];
var 1..22: X_INTRODUCED_16_;
var 1..22: X_INTRODUCED_17_;
var 1..22: X_INTRODUCED_18_;
var 1..22: X_INTRODUCED_19_;
var 1..22: X_INTRODUCED_20_;
var 1..22: X_INTRODUCED_21_;
var 1..22: X_INTRODUCED_22_;
var 1..22: X_INTRODUCED_23_;
var 1..22: X_INTRODUCED_24_;
var 1..22: X_INTRODUCED_25_;
var 1..22: X_INTRODUCED_26_;
var 1..22: X_INTRODUCED_27_;
var 1..22: X_INTRODUCED_28_;
var 1..22: X_INTRODUCED_29_;
var 1..22: X_INTRODUCED_30_;
var 1..22: X_INTRODUCED_31_;
var 1..22: X_INTRODUCED_32_;
var 1..22: X_INTRODUCED_33_;
var 1..22: X_INTRODUCED_34_;
var 1..22: X_INTRODUCED_35_;
var 1..22: X_INTRODUCED_36_;
var 1..22: X_INTRODUCED_37_;
var 0..32: X_INTRODUCED_40_ ::var_is_introduced :: is_defined_var;
var 0..53: X_INTRODUCED_42_ ::var_is_introduced :: is_defined_var;
var 0..34: X_INTRODUCED_44_ ::var_is_introduced :: is_defined_var;
var 0..34: X_INTRODUCED_46_ ::var_is_introduced :: is_defined_var;
var 0..48: X_INTRODUCED_48_ ::var_is_introduced :: is_defined_var;
var 0..55: X_INTRODUCED_50_ ::var_is_introduced :: is_defined_var;
var 0..57: X_INTRODUCED_52_ ::var_is_introduced :: is_defined_var;
var 0..35: X_INTRODUCED_54_ ::var_is_introduced :: is_defined_var;
var 0..49: X_INTRODUCED_56_ ::var_is_introduced :: is_defined_var;
var 0..48: X_INTRODUCED_58_ ::var_is_introduced :: is_defined_var;
var 0..43: X_INTRODUCED_60_ ::var_is_introduced :: is_defined_var;
var 0..37: X_INTRODUCED_62_ ::var_is_introduced :: is_defined_var;
var 0..37: X_INTRODUCED_64_ ::var_is_introduced :: is_defined_var;
var 0..51: X_INTRODUCED_66_ ::var_is_introduced :: is_defined_var;
var 0..44: X_INTRODUCED_68_ ::var_is_introduced :: is_defined_var;
var 0..45: X_INTRODUCED_70_ ::var_is_introduced :: is_defined_var;
var 0..53: X_INTRODUCED_72_ ::var_is_introduced :: is_defined_var;
var 0..57: X_INTRODUCED_74_ ::var_is_introduced :: is_defined_var;
var 0..52: X_INTRODUCED_76_ ::var_is_introduced :: is_defined_var;
var 0..42: X_INTRODUCED_78_ ::var_is_introduced :: is_defined_var;
var 0..40: X_INTRODUCED_80_ ::var_is_introduced :: is_defined_var;
var 0..490: X_INTRODUCED_81_:: is_defined_var;
var 0..511: X_INTRODUCED_82_:: is_defined_var;
var 0..492: X_INTRODUCED_83_:: is_defined_var;
var 0..492: X_INTRODUCED_84_:: is_defined_var;
var 0..506: X_INTRODUCED_85_:: is_defined_var;
var 0..513: X_INTRODUCED_86_:: is_defined_var;
var 0..515: X_INTRODUCED_87_:: is_defined_var;
var 0..493: X_INTRODUCED_88_:: is_defined_var;
var 0..507: X_INTRODUCED_89_:: is_defined_var;
var 0..506: X_INTRODUCED_90_:: is_defined_var;
var 0..501: X_INTRODUCED_91_:: is_defined_var;
var 0..495: X_INTRODUCED_92_:: is_defined_var;
var 0..495: X_INTRODUCED_93_:: is_defined_var;
var 0..509: X_INTRODUCED_94_:: is_defined_var;
var 0..502: X_INTRODUCED_95_:: is_defined_var;
var 0..503: X_INTRODUCED_96_:: is_defined_var;
var 0..511: X_INTRODUCED_97_:: is_defined_var;
var 0..515: X_INTRODUCED_98_:: is_defined_var;
var 0..510: X_INTRODUCED_99_:: is_defined_var;
var 0..500: X_INTRODUCED_100_:: is_defined_var;
var 0..498: X_INTRODUCED_101_:: is_defined_var;
var 0..458: X_INTRODUCED_102_ ::var_is_introduced ;
var 319..427: X_INTRODUCED_103_ ::var_is_introduced ;
var 0..91: X_INTRODUCED_104_ ::var_is_introduced ;
var 0..73: X_INTRODUCED_105_ ::var_is_introduced ;
var 116..233: X_INTRODUCED_106_ ::var_is_introduced ;
var 65..176: X_INTRODUCED_107_ ::var_is_introduced ;
var 67..192: X_INTRODUCED_108_ ::var_is_introduced ;
var 0..118: X_INTRODUCED_109_ ::var_is_introduced ;
var 41..165: X_INTRODUCED_110_ ::var_is_introduced ;
var 17..142: X_INTRODUCED_111_ ::var_is_introduced ;
var 84..201: X_INTRODUCED_112_ ::var_is_introduced ;
var 0..69: X_INTRODUCED_113_ ::var_is_introduced ;
var 129..253: X_INTRODUCED_114_ ::var_is_introduced ;
var 214..325: X_INTRODUCED_115_ ::var_is_introduced ;
var 100..226: X_INTRODUCED_116_ ::var_is_introduced ;
var 5..134: X_INTRODUCED_117_ ::var_is_introduced ;
var 162..290: X_INTRODUCED_118_ ::var_is_introduced ;
var 268..374: X_INTRODUCED_119_ ::var_is_introduced ;
var 150..283: X_INTRODUCED_120_ ::var_is_introduced ;
var 0..98: X_INTRODUCED_121_ ::var_is_introduced ;
var 248..352: X_INTRODUCED_122_ ::var_is_introduced ;
var 0..458: X_INTRODUCED_125_ ::var_is_introduced :: is_defined_var;
var 0..458: X_INTRODUCED_126_ ::var_is_introduced :: is_defined_var;
var 0..458: X_INTRODUCED_127_ ::var_is_introduced :: is_defined_var;
var 0..458: X_INTRODUCED_128_ ::var_is_introduced :: is_defined_var;
var 0..458: X_INTRODUCED_129_ ::var_is_introduced :: is_defined_var;
var 0..458: X_INTRODUCED_130_ ::var_is_introduced :: is_defined_var;
var 0..458: X_INTRODUCED_131_ ::var_is_introduced :: is_defined_var;
var 0..458: X_INTRODUCED_132_ ::var_is_introduced :: is_defined_var;
var 0..458: X_INTRODUCED_133_ ::var_is_introduced :: is_defined_var;
var 0..458: X_INTRODUCED_134_ ::var_is_introduced :: is_defined_var;
var 0..458: X_INTRODUCED_135_ ::var_is_introduced :: is_defined_var;
var 0..458: X_INTRODUCED_136_ ::var_is_introduced :: is_defined_var;
var 0..458: X_INTRODUCED_137_ ::var_is_introduced :: is_defined_var;
var 0..458: X_INTRODUCED_138_ ::var_is_introduced :: is_defined_var;
var 0..458: X_INTRODUCED_139_ ::var_is_introduced :: is_defined_var;
var 0..458: X_INTRODUCED_140_ ::var_is_introduced :: is_defined_var;
var 0..458: X_INTRODUCED_141_ ::var_is_introduced :: is_defined_var;
var 0..458: X_INTRODUCED_142_ ::var_is_introduced :: is_defined_var;
var 0..458: X_INTRODUCED_143_ ::var_is_introduced :: is_defined_var;
var 0..458: X_INTRODUCED_144_ ::var_is_introduced :: is_defined_var;
var 0..458: X_INTRODUCED_145_ ::var_is_introduced :: is_defined_var;
var 0..458: X_INTRODUCED_146_ ::var_is_introduced :: is_defined_var;
array [1..22] of var int: pred:: output_array([1..22]) = [X_INTRODUCED_16_,X_INTRODUCED_17_,X_INTRODUCED_18_,X_INTRODUCED_19_,X_INTRODUCED_20_,X_INTRODUCED_21_,X_INTRODUCED_22_,X_INTRODUCED_23_,X_INTRODUCED_24_,X_INTRODUCED_25_,X_INTRODUCED_26_,X_INTRODUCED_27_,X_INTRODUCED_28_,X_INTRODUCED_29_,X_INTRODUCED_30_,X_INTRODUCED_31_,X_INTRODUCED_32_,X_INTRODUCED_33_,X_INTRODUCED_34_,X_INTRODUCED_35_,X_INTRODUCED_36_,X_INTRODUCED_37_];
array [1..21] of var int: arrival:: output_array([1..21]) = [X_INTRODUCED_81_,X_INTRODUCED_82_,X_INTRODUCED_83_,X_INTRODUCED_84_,X_INTRODUCED_85_,X_INTRODUCED_86_,X_INTRODUCED_87_,X_INTRODUCED_88_,X_INTRODUCED_89_,X_INTRODUCED_90_,X_INTRODUCED_91_,X_INTRODUCED_92_,X_INTRODUCED_93_,X_INTRODUCED_94_,X_INTRODUCED_95_,X_INTRODUCED_96_,X_INTRODUCED_97_,X_INTRODUCED_98_,X_INTRODUCED_99_,X_INTRODUCED_100_,X_INTRODUCED_101_];
array [1..22] of var int: departure = [X_INTRODUCED_102_,X_INTRODUCED_103_,X_INTRODUCED_104_,X_INTRODUCED_105_,X_INTRODUCED_106_,X_INTRODUCED_107_,X_INTRODUCED_108_,X_INTRODUCED_109_,X_INTRODUCED_110_,X_INTRODUCED_111_,X_INTRODUCED_112_,X_INTRODUCED_113_,X_INTRODUCED_114_,X_INTRODUCED_115_,X_INTRODUCED_116_,X_INTRODUCED_117_,X_INTRODUCED_118_,X_INTRODUCED_119_,X_INTRODUCED_120_,X_INTRODUCED_121_,X_INTRODUCED_122_,0];
array [1..43] of var int: X_INTRODUCED_171_ ::var_is_introduced  = [X_INTRODUCED_16_,X_INTRODUCED_17_,X_INTRODUCED_18_,X_INTRODUCED_19_,X_INTRODUCED_20_,X_INTRODUCED_21_,X_INTRODUCED_22_,X_INTRODUCED_23_,X_INTRODUCED_24_,X_INTRODUCED_25_,X_INTRODUCED_26_,X_INTRODUCED_27_,X_INTRODUCED_28_,X_INTRODUCED_29_,X_INTRODUCED_30_,X_INTRODUCED_31_,X_INTRODUCED_32_,X_INTRODUCED_33_,X_INTRODUCED_34_,X_INTRODUCED_35_,X_INTRODUCED_36_,X_INTRODUCED_37_,X_INTRODUCED_81_,X_INTRODUCED_82_,X_INTRODUCED_83_,X_INTRODUCED_84_,X_INTRODUCED_85_,X_INTRODUCED_86_,X_INTRODUCED_87_,X_INTRODUCED_88_,X_INTRODUCED_89_,X_INTRODUCED_90_,X_INTRODUCED_91_,X_INTRODUCED_92_,X_INTRODUCED_93_,X_INTRODUCED_94_,X_INTRODUCED_95_,X_INTRODUCED_96_,X_INTRODUCED_97_,X_INTRODUCED_98_,X_INTRODUCED_99_,X_INTRODUCED_100_,X_INTRODUCED_101_];
array [1..21] of var int: X_INTRODUCED_172_ ::var_is_introduced  = [X_INTRODUCED_81_,X_INTRODUCED_83_,X_INTRODUCED_84_,X_INTRODUCED_88_,X_INTRODUCED_92_,X_INTRODUCED_100_,X_INTRODUCED_96_,X_INTRODUCED_90_,X_INTRODUCED_89_,X_INTRODUCED_86_,X_INTRODUCED_87_,X_INTRODUCED_91_,X_INTRODUCED_95_,X_INTRODUCED_85_,X_INTRODUCED_93_,X_INTRODUCED_99_,X_INTRODUCED_97_,X_INTRODUCED_94_,X_INTRODUCED_101_,X_INTRODUCED_98_,X_INTRODUCED_82_];
constraint gecode_int_element(X_INTRODUCED_16_,1,X_INTRODUCED_39_,X_INTRODUCED_40_):: defines_var(X_INTRODUCED_40_);
constraint gecode_int_element(X_INTRODUCED_17_,1,X_INTRODUCED_41_,X_INTRODUCED_42_):: defines_var(X_INTRODUCED_42_);
constraint gecode_int_element(X_INTRODUCED_18_,1,X_INTRODUCED_43_,X_INTRODUCED_44_):: defines_var(X_INTRODUCED_44_);
constraint gecode_int_element(X_INTRODUCED_19_,1,X_INTRODUCED_45_,X_INTRODUCED_46_):: defines_var(X_INTRODUCED_46_);
constraint gecode_int_element(X_INTRODUCED_20_,1,X_INTRODUCED_47_,X_INTRODUCED_48_):: defines_var(X_INTRODUCED_48_);
constraint gecode_int_element(X_INTRODUCED_21_,1,X_INTRODUCED_49_,X_INTRODUCED_50_):: defines_var(X_INTRODUCED_50_);
constraint gecode_int_element(X_INTRODUCED_22_,1,X_INTRODUCED_51_,X_INTRODUCED_52_):: defines_var(X_INTRODUCED_52_);
constraint gecode_int_element(X_INTRODUCED_23_,1,X_INTRODUCED_53_,X_INTRODUCED_54_):: defines_var(X_INTRODUCED_54_);
constraint gecode_int_element(X_INTRODUCED_24_,1,X_INTRODUCED_55_,X_INTRODUCED_56_):: defines_var(X_INTRODUCED_56_);
constraint gecode_int_element(X_INTRODUCED_25_,1,X_INTRODUCED_57_,X_INTRODUCED_58_):: defines_var(X_INTRODUCED_58_);
constraint gecode_int_element(X_INTRODUCED_26_,1,X_INTRODUCED_59_,X_INTRODUCED_60_):: defines_var(X_INTRODUCED_60_);
constraint gecode_int_element(X_INTRODUCED_27_,1,X_INTRODUCED_61_,X_INTRODUCED_62_):: defines_var(X_INTRODUCED_62_);
constraint gecode_int_element(X_INTRODUCED_28_,1,X_INTRODUCED_63_,X_INTRODUCED_64_):: defines_var(X_INTRODUCED_64_);
constraint gecode_int_element(X_INTRODUCED_29_,1,X_INTRODUCED_65_,X_INTRODUCED_66_):: defines_var(X_INTRODUCED_66_);
constraint gecode_int_element(X_INTRODUCED_30_,1,X_INTRODUCED_67_,X_INTRODUCED_68_):: defines_var(X_INTRODUCED_68_);
constraint gecode_int_element(X_INTRODUCED_31_,1,X_INTRODUCED_69_,X_INTRODUCED_70_):: defines_var(X_INTRODUCED_70_);
constraint gecode_int_element(X_INTRODUCED_32_,1,X_INTRODUCED_71_,X_INTRODUCED_72_):: defines_var(X_INTRODUCED_72_);
constraint gecode_int_element(X_INTRODUCED_33_,1,X_INTRODUCED_73_,X_INTRODUCED_74_):: defines_var(X_INTRODUCED_74_);
constraint gecode_int_element(X_INTRODUCED_34_,1,X_INTRODUCED_75_,X_INTRODUCED_76_):: defines_var(X_INTRODUCED_76_);
constraint gecode_int_element(X_INTRODUCED_35_,1,X_INTRODUCED_77_,X_INTRODUCED_78_):: defines_var(X_INTRODUCED_78_);
constraint gecode_int_element(X_INTRODUCED_36_,1,X_INTRODUCED_79_,X_INTRODUCED_80_):: defines_var(X_INTRODUCED_80_);
constraint int_max(X_INTRODUCED_81_,0,X_INTRODUCED_102_);
constraint int_max(X_INTRODUCED_82_,319,X_INTRODUCED_103_);
constraint int_max(X_INTRODUCED_83_,0,X_INTRODUCED_104_);
constraint int_max(X_INTRODUCED_84_,0,X_INTRODUCED_105_);
constraint int_max(X_INTRODUCED_85_,116,X_INTRODUCED_106_);
constraint int_max(X_INTRODUCED_86_,65,X_INTRODUCED_107_);
constraint int_max(X_INTRODUCED_87_,67,X_INTRODUCED_108_);
constraint int_max(X_INTRODUCED_88_,0,X_INTRODUCED_109_);
constraint int_max(X_INTRODUCED_89_,41,X_INTRODUCED_110_);
constraint int_max(X_INTRODUCED_90_,17,X_INTRODUCED_111_);
constraint int_max(X_INTRODUCED_91_,84,X_INTRODUCED_112_);
constraint int_max(X_INTRODUCED_92_,0,X_INTRODUCED_113_);
constraint int_max(X_INTRODUCED_93_,129,X_INTRODUCED_114_);
constraint int_max(X_INTRODUCED_94_,214,X_INTRODUCED_115_);
constraint int_max(X_INTRODUCED_95_,100,X_INTRODUCED_116_);
constraint int_max(X_INTRODUCED_96_,5,X_INTRODUCED_117_);
constraint int_max(X_INTRODUCED_97_,162,X_INTRODUCED_118_);
constraint int_max(X_INTRODUCED_98_,268,X_INTRODUCED_119_);
constraint int_max(X_INTRODUCED_99_,150,X_INTRODUCED_120_);
constraint int_max(X_INTRODUCED_100_,0,X_INTRODUCED_121_);
constraint int_max(X_INTRODUCED_101_,248,X_INTRODUCED_122_);
constraint gecode_int_element(X_INTRODUCED_16_,1,departure,X_INTRODUCED_125_):: defines_var(X_INTRODUCED_125_);
constraint gecode_int_element(X_INTRODUCED_17_,1,departure,X_INTRODUCED_126_):: defines_var(X_INTRODUCED_126_);
constraint gecode_int_element(X_INTRODUCED_18_,1,departure,X_INTRODUCED_127_):: defines_var(X_INTRODUCED_127_);
constraint gecode_int_element(X_INTRODUCED_19_,1,departure,X_INTRODUCED_128_):: defines_var(X_INTRODUCED_128_);
constraint gecode_int_element(X_INTRODUCED_20_,1,departure,X_INTRODUCED_129_):: defines_var(X_INTRODUCED_129_);
constraint gecode_int_element(X_INTRODUCED_21_,1,departure,X_INTRODUCED_130_):: defines_var(X_INTRODUCED_130_);
constraint gecode_int_element(X_INTRODUCED_22_,1,departure,X_INTRODUCED_131_):: defines_var(X_INTRODUCED_131_);
constraint gecode_int_element(X_INTRODUCED_23_,1,departure,X_INTRODUCED_132_):: defines_var(X_INTRODUCED_132_);
constraint gecode_int_element(X_INTRODUCED_24_,1,departure,X_INTRODUCED_133_):: defines_var(X_INTRODUCED_133_);
constraint gecode_int_element(X_INTRODUCED_25_,1,departure,X_INTRODUCED_134_):: defines_var(X_INTRODUCED_134_);
constraint gecode_int_element(X_INTRODUCED_26_,1,departure,X_INTRODUCED_135_):: defines_var(X_INTRODUCED_135_);
constraint gecode_int_element(X_INTRODUCED_27_,1,departure,X_INTRODUCED_136_):: defines_var(X_INTRODUCED_136_);
constraint gecode_int_element(X_INTRODUCED_28_,1,departure,X_INTRODUCED_137_):: defines_var(X_INTRODUCED_137_);
constraint gecode_int_element(X_INTRODUCED_29_,1,departure,X_INTRODUCED_138_):: defines_var(X_INTRODUCED_138_);
constraint gecode_int_element(X_INTRODUCED_30_,1,departure,X_INTRODUCED_139_):: defines_var(X_INTRODUCED_139_);
constraint gecode_int_element(X_INTRODUCED_31_,1,departure,X_INTRODUCED_140_):: defines_var(X_INTRODUCED_140_);
constraint gecode_int_element(X_INTRODUCED_32_,1,departure,X_INTRODUCED_141_):: defines_var(X_INTRODUCED_141_);
constraint gecode_int_element(X_INTRODUCED_33_,1,departure,X_INTRODUCED_142_):: defines_var(X_INTRODUCED_142_);
constraint gecode_int_element(X_INTRODUCED_34_,1,departure,X_INTRODUCED_143_):: defines_var(X_INTRODUCED_143_);
constraint gecode_int_element(X_INTRODUCED_35_,1,departure,X_INTRODUCED_144_):: defines_var(X_INTRODUCED_144_);
constraint gecode_int_element(X_INTRODUCED_36_,1,departure,X_INTRODUCED_145_):: defines_var(X_INTRODUCED_145_);
constraint gecode_int_element(X_INTRODUCED_37_,1,departure,X_INTRODUCED_146_):: defines_var(X_INTRODUCED_146_);
constraint int_lin_eq(X_INTRODUCED_150_,[X_INTRODUCED_81_,X_INTRODUCED_125_,X_INTRODUCED_40_],0):: defines_var(X_INTRODUCED_81_);
constraint int_lin_eq(X_INTRODUCED_150_,[X_INTRODUCED_82_,X_INTRODUCED_126_,X_INTRODUCED_42_],0):: defines_var(X_INTRODUCED_82_);
constraint int_lin_eq(X_INTRODUCED_150_,[X_INTRODUCED_83_,X_INTRODUCED_127_,X_INTRODUCED_44_],0):: defines_var(X_INTRODUCED_83_);
constraint int_lin_eq(X_INTRODUCED_150_,[X_INTRODUCED_84_,X_INTRODUCED_128_,X_INTRODUCED_46_],0):: defines_var(X_INTRODUCED_84_);
constraint int_lin_eq(X_INTRODUCED_150_,[X_INTRODUCED_85_,X_INTRODUCED_129_,X_INTRODUCED_48_],0):: defines_var(X_INTRODUCED_85_);
constraint int_lin_eq(X_INTRODUCED_150_,[X_INTRODUCED_86_,X_INTRODUCED_130_,X_INTRODUCED_50_],0):: defines_var(X_INTRODUCED_86_);
constraint int_lin_eq(X_INTRODUCED_150_,[X_INTRODUCED_87_,X_INTRODUCED_131_,X_INTRODUCED_52_],0):: defines_var(X_INTRODUCED_87_);
constraint int_lin_eq(X_INTRODUCED_150_,[X_INTRODUCED_88_,X_INTRODUCED_132_,X_INTRODUCED_54_],0):: defines_var(X_INTRODUCED_88_);
constraint int_lin_eq(X_INTRODUCED_150_,[X_INTRODUCED_89_,X_INTRODUCED_133_,X_INTRODUCED_56_],0):: defines_var(X_INTRODUCED_89_);
constraint int_lin_eq(X_INTRODUCED_150_,[X_INTRODUCED_90_,X_INTRODUCED_134_,X_INTRODUCED_58_],0):: defines_var(X_INTRODUCED_90_);
constraint int_lin_eq(X_INTRODUCED_150_,[X_INTRODUCED_91_,X_INTRODUCED_135_,X_INTRODUCED_60_],0):: defines_var(X_INTRODUCED_91_);
constraint int_lin_eq(X_INTRODUCED_150_,[X_INTRODUCED_92_,X_INTRODUCED_136_,X_INTRODUCED_62_],0):: defines_var(X_INTRODUCED_92_);
constraint int_lin_eq(X_INTRODUCED_150_,[X_INTRODUCED_93_,X_INTRODUCED_137_,X_INTRODUCED_64_],0):: defines_var(X_INTRODUCED_93_);
constraint int_lin_eq(X_INTRODUCED_150_,[X_INTRODUCED_94_,X_INTRODUCED_138_,X_INTRODUCED_66_],0):: defines_var(X_INTRODUCED_94_);
constraint int_lin_eq(X_INTRODUCED_150_,[X_INTRODUCED_95_,X_INTRODUCED_139_,X_INTRODUCED_68_],0):: defines_var(X_INTRODUCED_95_);
constraint int_lin_eq(X_INTRODUCED_150_,[X_INTRODUCED_96_,X_INTRODUCED_140_,X_INTRODUCED_70_],0):: defines_var(X_INTRODUCED_96_);
constraint int_lin_eq(X_INTRODUCED_150_,[X_INTRODUCED_97_,X_INTRODUCED_141_,X_INTRODUCED_72_],0):: defines_var(X_INTRODUCED_97_);
constraint int_lin_eq(X_INTRODUCED_150_,[X_INTRODUCED_98_,X_INTRODUCED_142_,X_INTRODUCED_74_],0):: defines_var(X_INTRODUCED_98_);
constraint int_lin_eq(X_INTRODUCED_150_,[X_INTRODUCED_99_,X_INTRODUCED_143_,X_INTRODUCED_76_],0):: defines_var(X_INTRODUCED_99_);
constraint int_lin_eq(X_INTRODUCED_150_,[X_INTRODUCED_100_,X_INTRODUCED_144_,X_INTRODUCED_78_],0):: defines_var(X_INTRODUCED_100_);
constraint int_lin_eq(X_INTRODUCED_150_,[X_INTRODUCED_101_,X_INTRODUCED_145_,X_INTRODUCED_80_],0):: defines_var(X_INTRODUCED_101_);
constraint gecode_circuit(1,pred):: domain;
solve :: seq_search([int_search(pred,first_fail,indomain_min,complete),int_search(X_INTRODUCED_172_,input_order,indomain_min,complete)]):: lns_warm_start(X_INTRODUCED_171_,[3,18,8,1,15,9,6,10,16,12,20,22,5,19,7,11,13,21,17,4,14,2,66,426,50,71,222,176,191,48,164,34,98,0,244,321,210,131,263,373,274,90,352]) minimize X_INTRODUCED_146_;
